p cnf 16 16
-1 16 0 
-2 -3 16 0 
-4 -5 -3 16 0 
-6 16 0 
-3 16 0 
-5 -3 16 0 
-7 16 0 
-8 16 0 
-4 -3 16 0 
-5 16 0 
-4 -9 -5 -3 16 0 
-4 -5 -3 -10 16 0 
-2 -11 -12 -3 16 0 
-4 -3 -5 -13 16 0 
-14 -9 -15 -3 16 0 
-3 16 0 
